12
0 10 49 59 28 11 15 44 40 18 44 51 
10 0 22 21 26 55 27 45 45 34 45 33 
49 22 0 13 43 52 18 38 18 23 45 47 
59 21 13 0 34 46 59 20 27 47 46 25 
28 26 43 34 0 23 48 32 30 25 41 54 
11 55 52 46 23 0 37 10 33 36 45 55 
15 27 18 59 48 37 0 55 29 48 35 22 
44 45 38 20 32 10 55 0 16 36 40 29 
40 45 18 27 30 33 29 16 0 16 41 29 
18 34 23 47 25 36 48 36 16 0 15 32 
44 45 45 46 41 45 35 40 41 15 0 56 
51 33 47 25 54 55 22 29 29 32 56 0 
